# Objective value = 69
WA1n 0
WA1p 0
WA2n 1
WA2p 0
WB1n 0
WB1p 0
WB2n 0
WB2p 1
WC1n 0
WC1p 1
WD1n 1
WD1p 0
WD2n 1
WD2p 0
WE1n 0
WE1p 1
WE2n 0
WE2p 1
WF1n 0
WF1p 1
WF2n 0
WF2p 1
WG1n 5
WG1p 0
WG2n 1
WG2p 0
WH1n 0
WH1p 5
WH2n 0
WH2p 1
WI1n 0
WI1p 5
WI2n 0
WI2p 1
WJ1n 0
WJ1p 5
WJ2n 0
WJ2p 1
WK1n 23
WK1p 0
WK2n 1
WK2p 0
WT1n 2
WT1p 0
5 7
a 0
b 0
c 0
d 1
e 1
f 0
g 0
h 1
i 1
j 1
k 1
l 0
m 0
n 1
o 1
p 1
q 1
r 1
s 1
t 0
u 0
v 0
